100
32
18
4
3
21
1
2
5
7
2
12
14
2
8
19
7
23
10
12
13
6
1
3
2
7
5
11
11
1
1
18
2
4
16
17
18
19
2
2
18
5
3
2
1
1
3
9
1
19
3
17
1
3
1
2
1
2
2
2
5
1
5
1
2
17
3
5
1
3
1
3
1
1
5
1
2
1
1
1
1
1
2
1
1
19
3
1
1
5
1
3
1
2
5
1
3
1
2
2
1
2